Route #1: 95 5 83 45 46 8 18
Route #2: 59 92 98 44 14 42 15 2
Route #3: 76 33 81 9 51 50 0 53 87 97 13 58
Route #4: 27 69 30 71 65 34 78 0 85 91 100 37 93 96
Route #5: 28 21 72 75 22 73 0 94 99 84 17 48 60 89
Route #6: 82 47 36 49 19 7 0 10 90 32 66 35 20 70 1
Route #7: 39 67 23 41 40 0 6 61 16 86 38 43 57
Route #8: 31 63 64 11 62 88 52 0 12 29 79 3 68 0 26 74 56 4 25 55 54 24 80 77
Cost: 13144
Optimal: True
